NAME : ct_5_n_3_k10_t_60
COMMENT : (ct_5_n_3_k10_t_60, Min no of trucks: 2, Optimal value: 541.878189559448, Split: No)
TYPE : SDVRP
DIMENSION : 6
EDGE_WEIGHT_TYPE : EUC_2D
CAPACITY : 10
NODE_COORD_SECTION
1 100 100
2 116 147
3 162 21
4 30 50
5 49 136
6 135 32
DEMAND_SECTION
1 0
2 3.9
3 4.9
4 3.0
5 2.6
6 3.6
DEPOT_SECTION
 1
EOF